\ENCODING=ISO-8859-1
\Problem name: Configuration 1

Minimize
 obj1: 0.032 B(1)(2) + 0.04 B(2)(1) + 0.041 B(2)(2) + 0.052 B(3)(1)
       + 0.039 B(3)(2) + 0.017 B(4)(1) + 0.027 B(4)(2) + 0.055 B(5)(1)
       + 0.023 B(5)(2) + 0.042 B(6)(1) + 0.043 B(6)(2) + 0.026 M(1)(1)
       + 0.037 M(1)(2) + 0.032 M(1)(3) + 0.017 M(2)(1) + 0.017 M(2)(2)
       + 0.033 M(2)(3)
Subject To
 C:    B(1)(1) + B(2)(1) + B(3)(1) + B(4)(1) + B(5)(1) + B(6)(1)
       - 8.333 M(1)(1) - 8.333 M(1)(2) - 9.091 M(1)(3)  = 0
 C1:   B(1)(2) + B(2)(2) + B(3)(2) + B(4)(2) + B(5)(2) + B(6)(2)
       - 8.333 M(2)(1) - 8.333 M(2)(2) - 9.091 M(2)(3)  = 0
 C2:   M(1)(1) + M(2)(1) <= 30
 C3:   M(1)(2) + M(2)(2) <= 68
 C4:   M(1)(3) + M(2)(3) <= 20
 C5:   B(1)(1) + B(2)(1) + B(3)(1) + B(4)(1) + B(5)(1) + B(6)(1) <= 220
 C6:   B(1)(2) + B(2)(2) + B(3)(2) + B(4)(2) + B(5)(2) + B(6)(2) <= 200
 P(1): B(1)(1) + B(1)(2) >= 103
 P(2): B(2)(1) + B(2)(2) >= 74
 P(3): B(3)(1) + B(3)(2) >= 50
 P(4): B(4)(1) + B(4)(2) >= 60
 P(5): B(5)(1) + B(5)(2) >= 102
 P(6): B(6)(1) + B(6)(2) >= 13
End
